data/mip_solutions/furman_sahinidis/reduced_transportation/14sp1_gurobi.sol
Elapsed time: 172.619493961
Nodes explored: 319530
Upper bound: 14.0
Lower bound: 14.0
y[0,0]=1
y[1,2]=1
y[1,4]=1
y[2,1]=1
y[2,5]=1
y[3,0]=1
y[3,3]=1
y[3,4]=1
y[4,2]=1
y[5,3]=1
y[5,5]=1
y[6,3]=1
y[6,6]=1
y[6,7]=1
q[0,0,0,6]=253.0
q[0,0,0,7]=115.0
q[0,1,0,2]=144.0
q[0,1,0,5]=40.0
q[0,2,0,2]=388.0
q[0,2,0,3]=133.0
q[0,2,0,8]=399.0
q[0,3,0,7]=184.0
q[0,4,0,4]=931.0
q[0,4,0,5]=124.0
q[0,4,0,7]=233.0
q[0,5,0,5]=368.0
q[1,1,2,2]=241.8
q[1,2,2,2]=30.2
q[1,2,2,3]=30.2
q[1,2,4,3]=99.6
q[1,2,4,4]=679.8
q[1,2,4,8]=369.2
q[1,3,2,3]=241.8
q[1,4,2,6]=401.2
q[1,4,4,4]=1291.4
q[1,5,4,5]=967.2
q[1,6,4,6]=1209.0
q[1,7,4,7]=725.4
q[2,2,1,2]=130.2
q[2,2,1,6]=133.4
q[2,2,1,7]=520.8
q[2,2,5,8]=255.6
q[2,3,1,3]=130.2
q[2,3,1,5]=77.8
q[2,4,1,4]=911.4
q[2,4,1,5]=27.0
q[2,4,1,6]=517.6
q[2,5,1,5]=416.0
q[3,3,4,3]=182.0
q[3,4,3,4]=888.0
q[3,4,3,5]=386.0
q[3,5,3,5]=437.6
q[3,5,4,5]=159.2
q[3,5,4,8]=131.2
q[3,6,0,6]=412.0
q[3,6,4,6]=199.0
q[3,6,4,8]=299.0
q[3,7,4,7]=401.0
q[3,7,4,8]=45.4
q[3,7,4,9]=281.6
q[4,4,2,4]=1904.0
q[4,4,2,6]=71.4
q[4,5,2,5]=1088.0
q[4,5,2,6]=40.8
q[4,6,2,6]=846.6
q[5,5,3,5]=64.4
q[5,5,5,5]=156.0
q[5,5,5,7]=546.4
q[5,6,3,6]=11.0
q[5,6,5,6]=780.0
q[5,6,5,8]=167.5
q[5,7,3,7]=689.2
q[5,7,5,7]=77.6
q[5,8,3,8]=157.6
q[5,8,3,9]=216.6
q[5,8,5,8]=44.9
q[5,8,5,10]=156.0
q[5,9,3,9]=5.4
q[5,9,3,10]=30.3
q[5,9,5,9]=156.0
q[5,10,3,10]=191.7
q[5,11,3,11]=287.55
q[6,6,3,6]=1099.0
q[6,6,6,6]=261.0
q[6,7,3,7]=198.8
q[6,7,6,7]=522.0
q[6,7,6,8]=106.2
q[6,7,6,9]=130.5
q[6,7,6,12]=130.5
q[6,8,3,8]=508.4
q[6,8,6,8]=285.3
q[6,8,6,10]=22.3
q[6,9,7,13]=272.0
q[6,10,6,10]=108.2
q[6,10,6,11]=9.45
q[6,10,7,13]=154.35
q[6,11,3,11]=156.45
q[6,11,6,11]=251.55
