data/mip_solutions/furman_sahinidis/reduced_transportation/14sp1_gurobi.log

Gurobi 6.5.2 (linux64) logging started Thu Jan 25 19:40:02 2018

Changed value of parameter LogFile to data/mip_solutions/furman_sahinidis/reduced_transportation/14sp1_gurobi.log
   Prev: gurobi.log  Default: 
Changed value of parameter Threads to 1
   Prev: 0  Min: 0  Max: 1024  Default: 0
Optimize a model with 268 rows, 5938 columns and 17754 nonzeros
Coefficient statistics:
  Matrix range    [1e+00, 6e+03]
  Objective range [1e+00, 1e+00]
  Bounds range    [1e+00, 1e+00]
  RHS range       [1e+00, 2e+03]
Found heuristic solution: objective 52
Presolve removed 127 rows and 4705 columns
Presolve time: 0.00s
Presolved: 141 rows, 1233 columns, 3587 nonzeros
Variable types: 1177 continuous, 56 integer (56 binary)

Root relaxation: objective 9.058930e+00, 786 iterations, 0.01 seconds

    Nodes    |    Current Node    |     Objective Bounds      |     Work
 Expl Unexpl |  Obj  Depth IntInf | Incumbent    BestBd   Gap | It/Node Time

     0     0    9.05893    0    9   52.00000    9.05893  82.6%     -    0s
H    0     0                      14.0000000    9.05893  35.3%     -    0s
     0     0    9.24693    0   21   14.00000    9.24693  34.0%     -    0s
     0     0    9.31181    0   22   14.00000    9.31181  33.5%     -    0s
     0     0    9.44365    0   28   14.00000    9.44365  32.5%     -    0s
     0     0    9.48685    0   25   14.00000    9.48685  32.2%     -    0s
     0     0    9.96349    0   22   14.00000    9.96349  28.8%     -    0s
     0     0    9.99177    0   23   14.00000    9.99177  28.6%     -    0s
     0     0   10.01831    0   30   14.00000   10.01831  28.4%     -    0s
     0     0   10.05271    0   31   14.00000   10.05271  28.2%     -    0s
     0     0   10.09573    0   33   14.00000   10.09573  27.9%     -    0s
     0     0   10.09573    0   32   14.00000   10.09573  27.9%     -    0s
     0     0   10.15132    0   26   14.00000   10.15132  27.5%     -    0s
     0     0   10.21839    0   29   14.00000   10.21839  27.0%     -    0s
     0     0   10.23141    0   30   14.00000   10.23141  26.9%     -    0s
     0     0   10.23141    0   30   14.00000   10.23141  26.9%     -    0s
     0     0   10.26185    0   31   14.00000   10.26185  26.7%     -    0s
     0     0   10.26235    0   31   14.00000   10.26235  26.7%     -    0s
     0     0   10.26235    0   30   14.00000   10.26235  26.7%     -    0s
     0     0   10.26235    0   30   14.00000   10.26235  26.7%     -    0s
     0     0   10.26235    0   30   14.00000   10.26235  26.7%     -    0s
     0     0   10.26235    0   28   14.00000   10.26235  26.7%     -    0s
     0     2   10.29386    0   28   14.00000   10.29386  26.5%     -    0s
  4374  1787   12.63632   30    9   14.00000   11.10222  20.7%  51.9    5s
 12286  4534   12.86339   32    6   14.00000   11.10222  20.7%  44.8   10s
 20681  6956   12.30606   32   11   14.00000   11.10222  20.7%  43.5   15s
 29343  9127     cutoff   35        14.00000   11.10222  20.7%  42.5   20s
 38073 11469   12.01807   35    7   14.00000   11.13951  20.4%  41.5   25s
 46547 13539 infeasible   32        14.00000   11.23089  19.8%  41.0   30s
 54947 15176   11.31730   30   14   14.00000   11.31123  19.2%  40.8   35s
 63529 16635   12.65116   32    6   14.00000   11.39013  18.6%  40.5   40s
 72055 17978   12.11874   32   12   14.00000   11.46494  18.1%  40.3   45s
 80418 19169   12.48006   37    5   14.00000   11.53675  17.6%  40.2   50s
 88902 20243     cutoff   33        14.00000   11.59926  17.1%  40.1   55s
 97183 21188   12.76417   35    4   14.00000   11.65883  16.7%  40.0   60s
 105439 22140   12.45707   33    2   14.00000   11.71438  16.3%  40.0   65s
 113564 22894   13.00000   32    5   14.00000   11.77018  15.9%  39.9   70s
 122266 23463     cutoff   35        14.00000   11.83123  15.5%  39.9   75s
 131033 23999   12.21119   28    8   14.00000   11.89282  15.1%  39.9   80s
 139070 24493   12.65269   29   10   14.00000   11.94301  14.7%  40.0   85s
 147509 25016   12.88978   34    5   14.00000   11.98455  14.4%  40.0   90s
 155943 25842 infeasible   37        14.00000   12.00000  14.3%  39.9   95s
 164523 26821   12.68197   40   10   14.00000   12.01162  14.2%  39.8  100s
 173499 27071 infeasible   36        14.00000   12.04307  14.0%  39.7  105s
 183291 27222   12.46177   31   13   14.00000   12.07410  13.8%  39.4  110s
 192993 27303     cutoff   38        14.00000   12.10761  13.5%  39.2  115s
 202653 26932   12.14475   33    9   14.00000   12.14475  13.3%  38.9  120s
 211853 26311     cutoff   36        14.00000   12.18209  13.0%  38.7  125s
 222016 25310   12.85121   37    6   14.00000   12.22234  12.7%  38.4  130s
 231854 23956 infeasible   38        14.00000   12.27154  12.3%  38.2  135s
 242375 22000     cutoff   37        14.00000   12.33936  11.9%  37.9  140s
 252456 19972   12.54540   34   11   14.00000   12.40942  11.4%  37.6  145s
 263008 17664   12.77155   37    3   14.00000   12.50061  10.7%  37.4  150s
 273968 15038   13.00000   38    5   14.00000   12.60867  9.94%  37.1  155s
 285373 11247   12.87650   33    9   14.00000   12.80629  8.53%  36.8  160s
 299507  5477     cutoff   35        14.00000   13.00000  7.14%  36.0  165s
 313269  1753     cutoff   37        14.00000   13.00000  7.14%  35.4  170s

Explored 319530 nodes (11244360 simplex iterations) in 172.50 seconds
Thread count was 1 (of 8 available processors)

Optimal solution found (tolerance 4.00e-02)
Best objective 1.400000000000e+01, best bound 1.400000000000e+01, gap 0.0%
